minizinc/sudoku_problems2/sudoku_p32.dzn
%
% sudoku_p32.dzn
% See http://www.hakank.org/minizinc/sudoku_gcc.mzn
% 
% This problem is problem 32 from
% Gecode's sudoku.cpp
% http://www.gecode.org/gecode-doc-latest/sudoku_8cpp-source.html
% 
x = array2d(1..n, 1..n, [   
% 32
  _,  6, 24, 21,  _,  3, 16, 11,  _, 18,  _,  1, 15,  _, 14, 25,  _,  _,  9,  _,  _,  2,  4,  _,  _,
  _,  _,  1,  _, 25,  _,  _,  _,  _,  _, 20,  _,  _,  _,  _, 23,  _,  2,  _,  _,  _,  _,  _, 18, 13,
  2,  _,  8,  _, 20,  7,  _,  _, 19,  _,  _,  _,  6,  _,  _,  1, 15,  _,  _,  _,  _,  _,  _,  _, 10,
  _,  _,  _, 13,  _,  8,  _,  4,  _,  _,  2,  9,  _,  _, 21, 19,  7,  _, 17, 22, 20, 25, 15,  _,  _,
  _,  _, 18,  _,  9, 23,  _,  _,  _, 10,  _,  _, 25,  _, 22,  _, 13, 20,  _,  _,  _, 14,  5,  _,  _,
  9,  4,  _, 23,  _,  _,  _,  5,  _,  _, 15,  _,  _, 14,  _, 12,  1,  8,  2,  _,  _, 11, 16,  3,  _,
  8, 13,  _,  _,  3, 17, 12,  _,  _,  _,  _,  6, 16,  _,  _,  _,  _,  _, 25,  _, 15,  _,  7,  2, 18,
 12,  _,  _, 18,  _, 14,  _,  7, 13,  _,  _,  _,  _,  8, 11, 16,  _, 15,  _,  _,  _,  6,  _,  _,  _,
  _,  _,  _,  _,  _,  _, 21,  _,  _,  _,  _, 23,  _,  2,  4,  _,  _, 18,  _,  _,  1, 20,  _, 13, 19,
  _,  2,  7, 17, 16,  _, 23, 15,  _,  _,  _,  _,  _,  _, 18,  _,  _, 21,  _,  _, 14,  _, 10,  _,  _,
 21,  _,  _,  _, 23,  _, 18,  8, 15,  6,  _, 17,  _,  9, 20,  _,  3, 24,  _,  _, 11,  _,  _,  5, 25,
  _,  9,  _,  _,  _, 21,  _,  _,  2,  5,  _, 11,  1,  4, 15,  _, 23,  _, 19, 14,  _,  _,  _,  7, 20,
  _,  1,  _,  _,  _,  9, 11,  _,  _,  _,  _, 16, 19,  _,  8,  _, 10,  _,  5, 12,  _,  _,  _,  _,  _,
  _,  _,  _,  _, 12, 25, 20,  _,  _, 19,  _,  _,  _,  _,  5,  _, 22,  _,  7,  _,  6,  _, 17,  _,  3,
  _,  _, 15,  7,  _,  _,  3,  _,  _, 24,  _,  _, 23,  _,  _, 11,  8,  _,  _,  _,  _,  4,  2,  1,  _,
 10, 22,  _,  8,  _,  _,  _,  _, 25,  _,  _,  _,  7,  1,  _,  _,  2,  6, 23,  _,  _,  _,  3, 16,  _,
 25,  _,  _,  _,  _, 13,  _,  2,  _,  7,  8,  _, 24,  _,  _,  5, 12, 19,  _, 16, 10,  _, 11, 17,  _,
  6,  _,  _,  4,  _, 15,  _,  _,  _,  3,  _,  _,  _, 20,  9, 10,  _,  _,  1,  _,  _,  _, 19,  _, 22,
  _, 18,  2,  _, 14,  _,  _,  _,  _,  _,  _, 19, 22,  _, 23,  _,  _,  _, 11,  9,  8,  _,  _, 25,  _,
 15, 12,  _,  _,  7,  _,  _,  6,  _, 14, 18,  _, 13,  _, 16,  _,  _,  _,  3, 17,  5,  _,  _, 20, 23,
 18,  8, 23, 24,  _,  4, 15,  _,  9,  _,  _, 13, 11,  _,  _,  _,  _,  5,  _,  _,  _,  _,  _,  _,  _,
  5,  _,  _,  1,  _,  _,  _, 16,  3,  _, 22, 18, 17,  _, 10,  _,  9,  _,  _, 23,  _,  _,  _,  _,  _,
 20, 16,  _,  6,  2,  _,  _,  1,  _,  _,  _,  _,  _, 21,  3,  _,  _,  _,  _,  _, 18, 19, 14,  _, 15,
  _,  _,  _,  _, 13,  _,  6,  _, 10, 12,  4,  _,  9,  _,  _,  _,  _,  _, 24, 21,  _, 17, 25,  _,  _,
  _,  _, 14, 10,  _,  5, 24,  _, 21,  _,  6,  _,  _,  _,  _,  _,  _,  _, 13,  _,  _,  _,  9, 23,  _
]);

n = 25;


